p cnf 166 118
d 0.875 0.125
d 0.875 0.125
d 0.875 0.125
d 0.875 0.125
d 0.875 0.125
d 0.875 0.125
d 0.875 0.125
d 0.875 0.125
d 0.875 0.125
d 0.875 0.125
d 0.875 0.125
d 0.875 0.125
d 0.875 0.125
d 0.875 0.125
d 0.875 0.125
d 0.875 0.125
d 0.875 0.125
d 0.875 0.125
d 0.875 0.125
d 0.875 0.125
d 0.875 0.125
d 0.875 0.125
d 0.875 0.125
d 0.875 0.125
d 0.875 0.125
d 0.875 0.125
d 0.875 0.125
d 0.875 0.125
d 0.875 0.125
d 0.875 0.125
d 0.875 0.125
d 0.875 0.125
d 0.875 0.125
d 0.875 0.125
d 0.875 0.125
d 0.875 0.125
d 0.875 0.125
d 0.875 0.125
d 0.875 0.125
d 0.875 0.125
d 0.875 0.125
d 0.875 0.125
d 0.875 0.125
d 0.875 0.125
d 0.875 0.125
d 0.875 0.125
d 0.875 0.125
d 0.875 0.125
d 0.875 0.125
d 0.875 0.125
d 0.875 0.125
d 0.875 0.125
d 0.875 0.125
d 0.875 0.125
d 0.875 0.125
d 0.875 0.125
d 0.875 0.125
d 0.875 0.125
156
-126
119 -118 -0
118 -119 -0
129 -159 -2
159 -129 -2
149 -145 -4
145 -149 -4
153 -156 -6
156 -153 -6
126 -132 -8
132 -126 -8
160 -146 -10
146 -160 -10
122 -150 -12
150 -122 -12
145 -130 -14
130 -145 -14
120 -126 -16
126 -120 -16
146 -117 -18
117 -146 -18
134 -145 -20
145 -134 -20
149 -136 -22
136 -149 -22
158 -141 -24
141 -158 -24
157 -161 -26
161 -157 -26
120 -141 -28
141 -120 -28
145 -159 -30
159 -145 -30
137 -152 -32
152 -137 -32
158 -148 -34
148 -158 -34
150 -127 -36
127 -150 -36
128 -122 -38
122 -128 -38
156 -142 -40
142 -156 -40
128 -143 -42
143 -128 -42
157 -143 -44
143 -157 -44
141 -154 -46
154 -141 -46
119 -164 -48
164 -119 -48
148 -129 -50
129 -148 -50
144 -116 -52
116 -144 -52
118 -133 -54
133 -118 -54
139 -131 -56
131 -139 -56
124 -138 -58
138 -124 -58
144 -123 -60
123 -144 -60
165 -153 -62
153 -165 -62
156 -151 -64
151 -156 -64
119 -131 -66
131 -119 -66
134 -146 -68
146 -134 -68
137 -130 -70
130 -137 -70
124 -138 -72
138 -124 -72
155 -136 -74
136 -155 -74
149 -132 -76
132 -149 -76
136 -127 -78
127 -136 -78
124 -138 -80
138 -124 -80
148 -142 -82
142 -148 -82
149 -144 -84
144 -149 -84
121 -151 -86
151 -121 -86
161 -149 -88
149 -161 -88
144 -116 -90
116 -144 -90
163 -162 -92
162 -163 -92
163 -120 -94
120 -163 -94
129 -121 -96
121 -129 -96
123 -161 -98
161 -123 -98
145 -123 -100
123 -145 -100
162 -152 -102
152 -162 -102
135 -164 -104
164 -135 -104
139 -159 -106
159 -139 -106
162 -140 -108
140 -162 -108
147 -142 -110
142 -147 -110
147 -137 -112
137 -147 -112
165 -125 -114
125 -165 -114